units           real
boundary        p p p

pair_style      lj/charmmfsw/coul/long 10 12
pair_modify     mix arithmetic
kspace_style    pppm 1e-6

atom_style      full
bond_style      harmonic
angle_style     charmm
dihedral_style  charmmfsw
special_bonds   charmm
improper_style  harmonic

read_data       equil.data

neighbor        2 bin
neigh_modify    delay 0 every 1

thermo          1
thermo_style    multi

include     group_qm.inp
include     group_ca.inp
include     group_cl.inp
group       qm_no_ca subtract qm ca

delete_bonds    qm multi remove
neigh_modify    exclude group qm qm
set             group qm_no_ca charge 0.0
set             group cl charge 0.0

fix             1 all ipi aspmm0.700 123 unix
run             1000000
